(set-logic QF_S)
(declare-fun var_0xINPUT_464210 () String)
(assert (and (= (len var_0xINPUT_464210) 0) (= (len var_0xINPUT_464210) 0) (not (= var_0xINPUT_464210 "VEECEXk2pV"))))
(check-sat var_0xINPUT_464210)